g3 3 1 0	# problem s392
 30 25 1 0 0	# vars, constraints, objectives, ranges, eqns
 0 1	# nonlinear constraints, objectives
 0 0	# network constraints: nonlinear, linear
 0 30 0	# nonlinear vars in constraints, objectives, both
 0 0 0 1	# linear network variables; functions; arith, flags
 0 0 0 0 0	# discrete variables: binary, integer, nonlinear (b,c,o)
 120 30	# nonzeros in Jacobian, gradients
 0 0	# max name lengths: constraints, variables
 0 0 0 0 0	# common exprs: b,c,o,c1,o1
C0
n0
C1
n0
C2
n0
C3
n0
C4
n0
C5
n0
C6
n0
C7
n0
C8
n0
C9
n0
C10
n0
C11
n0
C12
n0
C13
n0
C14
n0
C15
n0
C16
n0
C17
n0
C18
n0
C19
n0
C20
n0
C21
n0
C22
n0
C23
n0
C24
n0
O0 0
o54
45
o2
n0.3
o5
v0
n2
o2
n0.02
o5
v15
n2
o2
n0.005
o5
o1
v15
v0
n2
o2
n0.1
o5
v5
n2
o2
n0.01
o5
v20
n2
o2
n0.005
o5
o1
v20
v5
n2
o2
n0.2
o5
v10
n2
o2
n0.015
o5
v25
n2
o2
n0.005
o5
o1
v25
v10
n2
o2
n0.3
o5
v1
n2
o2
n0.2
o5
o1
v16
v0
n2
o2
n0.05
o5
o1
v16
v1
n2
o2
n0.1
o5
v6
n2
o2
n0.1
o5
o1
v21
v5
n2
o2
n0.05
o5
o1
v21
v6
n2
o2
n0.2
o5
v11
n2
o2
n0.15
o5
o1
v26
v10
n2
o2
n0.05
o5
o1
v26
v11
n2
o2
n0.3
o5
v2
n2
o2
n0.25
o5
o1
v17
v1
n2
o2
n0.06
o5
o1
v17
v2
n2
o2
n0.1
o5
v7
n2
o2
n0.1
o5
o1
v22
v6
n2
o2
n0.06
o5
o1
v22
v7
n2
o2
n0.2
o5
v12
n2
o2
n0.15
o5
o1
v27
v11
n2
o2
n0.06
o5
o1
v27
v12
n2
o2
n0.3
o5
v3
n2
o2
n0.25
o5
o1
v18
v2
n2
o2
n0.06
o5
o1
v18
v3
n2
o2
n0.1
o5
v8
n2
o2
n0.15
o5
o1
v23
v7
n2
o2
n0.06
o5
o1
v23
v8
n2
o2
n0.2
o5
v13
n2
o2
n0.15
o5
o1
v28
v12
n2
o2
n0.06
o5
o1
v28
v13
n2
o2
n0.3
o5
v4
n2
o2
n0.25
o5
o1
v19
v3
n2
o2
n0.06
o5
o1
v19
v4
n2
o2
n0.1
o5
v9
n2
o2
n0.15
o5
o1
v24
v8
n2
o2
n0.06
o5
o1
v24
v9
n2
o2
n0.2
o5
v14
n2
o2
n0.15
o5
o1
v29
v13
n2
o2
n0.06
o5
o1
v29
v14
n2
x30
0 80
1 100
2 100
3 50
4 50
5 100
6 200
7 250
8 200
9 200
10 400
11 200
12 400
13 500
14 500
15 100
16 120
17 150
18 600
19 100
20 120
21 250
22 300
23 250
24 250
25 410
26 250
27 410
28 510
29 510
r
2 -170
2 -170
2 -170
2 -170
2 -170
2 -170
2 -170
2 -170
2 -170
2 -170
2 0
2 0
2 0
2 0
2 0
2 0
2 0
2 0
2 0
2 0
2 0
2 0
2 0
2 0
2 0
b
0 0 100
0 0 180
0 0 220
0 0 150
0 0 100
0 0 280
0 0 400
0 0 450
0 0 450
0 0 400
0 0 520
0 0 400
0 0 500
0 0 630
0 0 600
2 0
2 0
2 0
2 0
2 0
2 0
2 0
2 0
2 0
2 0
2 0
2 0
2 0
2 0
2 0
k29
5
9
12
14
15
20
24
27
29
30
35
39
42
44
45
52
58
63
67
70
77
83
88
92
95
102
108
113
117
J0 3
15 -0.6
20 -0.3
25 -0.36
J1 3
16 -0.6
21 -0.3
26 -0.36
J2 3
17 -0.6
22 -0.3
27 -0.36
J3 3
18 -0.6
23 -0.3
28 -0.36
J4 3
19 -0.6
24 -0.3
29 -0.36
J5 3
15 -0.4
20 -0.1
25 -0.08
J6 3
16 -0.4
21 -0.1
26 -0.08
J7 3
17 -0.4
22 -0.1
27 -0.08
J8 3
18 -0.4
23 -0.1
28 -0.08
J9 3
19 -0.4
24 -0.1
29 -0.08
J10 2
0 -1
15 1
J11 4
0 -1
1 -1
15 1
16 1
J12 6
0 -1
1 -1
2 -1
15 1
16 1
17 1
J13 8
0 -1
1 -1
2 -1
3 -1
15 1
16 1
17 1
18 1
J14 10
0 -1
1 -1
2 -1
3 -1
4 -1
15 1
16 1
17 1
18 1
19 1
J15 2
5 -1
20 1
J16 4
5 -1
6 -1
20 1
21 1
J17 6
5 -1
6 -1
7 -1
20 1
21 1
22 1
J18 8
5 -1
6 -1
7 -1
8 -1
20 1
21 1
22 1
23 1
J19 10
5 -1
6 -1
7 -1
8 -1
9 -1
20 1
21 1
22 1
23 1
24 1
J20 2
10 -1
25 1
J21 4
10 -1
11 -1
25 1
26 1
J22 6
10 -1
11 -1
12 -1
25 1
26 1
27 1
J23 8
10 -1
11 -1
12 -1
13 -1
25 1
26 1
27 1
28 1
J24 10
10 -1
11 -1
12 -1
13 -1
14 -1
25 1
26 1
27 1
28 1
29 1
G0 30
0 -1340
1 -1230
2 -1150
3 -1130
4 -1030
5 -690
6 -645
7 -585
8 -620
9 -570
10 -1225
11 -1150
12 -1150
13 -1060
14 -970
15 770
16 690
17 610
18 550
19 450
20 385
21 340
22 295
23 280
24 230
25 700
26 625
27 550
28 480
29 390
